p tw 64 107
5 22
5 16
5 23
5 20
5 13
2 14
2 10
4 30
4 18
4 21
4 10
4 25
10 15
56 64
56 63
42 61
42 52
37 48
37 59
37 41
37 56
37 49
25 30
52 60
20 28
20 29
29 62
61 64
61 63
61 62
1 15
1 18
1 12
1 63
1 17
1 22
6 10
6 17
33 60
33 52
33 41
38 57
38 51
9 21
9 14
9 15
13 23
41 56
41 47
17 28
17 64
17 22
32 45
32 54
32 56
34 45
34 53
34 60
22 24
44 49
12 29
12 21
12 16
12 15
54 60
49 58
49 51
7 17
39 51
3 19
3 8
3 7
3 25
35 46
35 45
35 36
48 49
48 56
48 62
63 64
50 56
16 24
16 29
16 18
31 41
31 53
31 51
11 13
11 29
43 60
43 55
43 49
43 57
43 50
40 47
26 61
26 27
55 60
8 26
8 28
8 14
36 45
36 59
36 39
36 40
51 57
51 53
